language Essence 1.3
letting nnodes be 120
letting nrings be 60
letting capacity be 45
letting demand be 
{{1, 3},
{1, 7},
{1, 8},
{1, 10},
{1, 12},
{1, 15},
{1, 20},
{1, 21},
{1, 23},
{1, 25},
{1, 26},
{1, 27},
{1, 29},
{1, 30},
{1, 31},
{1, 32},
{1, 37},
{1, 38},
{1, 43},
{1, 44},
{1, 46},
{1, 48},
{1, 49},
{1, 50},
{1, 51},
{1, 52},
{1, 54},
{1, 58},
{1, 62},
{1, 64},
{1, 66},
{1, 71},
{1, 72},
{1, 76},
{1, 78},
{1, 79},
{1, 81},
{1, 83},
{1, 89},
{1, 93},
{1, 95},
{1, 97},
{1, 98},
{1, 100},
{1, 102},
{1, 103},
{1, 105},
{1, 108},
{1, 109},
{1, 111},
{1, 112},
{1, 113},
{1, 114},
{1, 115},
{1, 118},
{2, 4},
{2, 7},
{2, 8},
{2, 9},
{2, 11},
{2, 12},
{2, 16},
{2, 17},
{2, 18},
{2, 19},
{2, 23},
{2, 24},
{2, 29},
{2, 31},
{2, 32},
{2, 33},
{2, 34},
{2, 43},
{2, 44},
{2, 45},
{2, 46},
{2, 47},
{2, 50},
{2, 53},
{2, 54},
{2, 55},
{2, 56},
{2, 57},
{2, 58},
{2, 59},
{2, 60},
{2, 61},
{2, 62},
{2, 64},
{2, 65},
{2, 67},
{2, 68},
{2, 70},
{2, 73},
{2, 74},
{2, 75},
{2, 77},
{2, 79},
{2, 80},
{2, 89},
{2, 92},
{2, 98},
{2, 99},
{2, 100},
{2, 101},
{2, 103},
{2, 104},
{2, 105},
{2, 106},
{2, 107},
{2, 108},
{2, 110},
{2, 114},
{2, 115},
{2, 117},
{3, 6},
{3, 7},
{3, 8},
{3, 9},
{3, 10},
{3, 13},
{3, 14},
{3, 16},
{3, 20},
{3, 21},
{3, 23},
{3, 26},
{3, 27},
{3, 28},
{3, 32},
{3, 33},
{3, 34},
{3, 37},
{3, 38},
{3, 39},
{3, 43},
{3, 44},
{3, 46},
{3, 47},
{3, 48},
{3, 49},
{3, 50},
{3, 51},
{3, 52},
{3, 53},
{3, 54},
{3, 58},
{3, 60},
{3, 65},
{3, 66},
{3, 70},
{3, 71},
{3, 72},
{3, 75},
{3, 76},
{3, 77},
{3, 80},
{3, 81},
{3, 83},
{3, 84},
{3, 85},
{3, 88},
{3, 90},
{3, 91},
{3, 92},
{3, 95},
{3, 98},
{3, 102},
{3, 103},
{3, 106},
{3, 108},
{3, 110},
{3, 112},
{3, 113},
{3, 114},
{3, 115},
{3, 116},
{3, 117},
{3, 118},
{3, 119},
{4, 6},
{4, 8},
{4, 10},
{4, 12},
{4, 13},
{4, 14},
{4, 16},
{4, 17},
{4, 19},
{4, 22},
{4, 26},
{4, 28},
{4, 29},
{4, 30},
{4, 36},
{4, 37},
{4, 40},
{4, 41},
{4, 43},
{4, 44},
{4, 45},
{4, 47},
{4, 48},
{4, 49},
{4, 50},
{4, 51},
{4, 53},
{4, 54},
{4, 55},
{4, 58},
{4, 59},
{4, 61},
{4, 62},
{4, 63},
{4, 64},
{4, 65},
{4, 70},
{4, 75},
{4, 78},
{4, 79},
{4, 81},
{4, 83},
{4, 86},
{4, 91},
{4, 93},
{4, 95},
{4, 96},
{4, 98},
{4, 99},
{4, 100},
{4, 102},
{4, 106},
{4, 107},
{4, 108},
{4, 111},
{4, 112},
{4, 114},
{4, 115},
{4, 116},
{4, 117},
{4, 120},
{5, 10},
{5, 11},
{5, 12},
{5, 13},
{5, 14},
{5, 15},
{5, 17},
{5, 20},
{5, 21},
{5, 22},
{5, 23},
{5, 25},
{5, 27},
{5, 29},
{5, 30},
{5, 31},
{5, 35},
{5, 36},
{5, 37},
{5, 38},
{5, 40},
{5, 46},
{5, 47},
{5, 48},
{5, 49},
{5, 50},
{5, 51},
{5, 52},
{5, 53},
{5, 54},
{5, 55},
{5, 56},
{5, 57},
{5, 58},
{5, 59},
{5, 61},
{5, 63},
{5, 64},
{5, 67},
{5, 68},
{5, 70},
{5, 72},
{5, 74},
{5, 75},
{5, 77},
{5, 80},
{5, 83},
{5, 85},
{5, 87},
{5, 88},
{5, 91},
{5, 93},
{5, 94},
{5, 95},
{5, 97},
{5, 100},
{5, 101},
{5, 102},
{5, 103},
{5, 104},
{5, 105},
{5, 106},
{5, 109},
{5, 110},
{5, 113},
{5, 115},
{5, 116},
{5, 117},
{5, 118},
{6, 7},
{6, 13},
{6, 14},
{6, 15},
{6, 16},
{6, 18},
{6, 19},
{6, 20},
{6, 21},
{6, 24},
{6, 25},
{6, 26},
{6, 28},
{6, 29},
{6, 30},
{6, 31},
{6, 33},
{6, 34},
{6, 35},
{6, 38},
{6, 40},
{6, 43},
{6, 45},
{6, 49},
{6, 53},
{6, 54},
{6, 55},
{6, 60},
{6, 61},
{6, 62},
{6, 69},
{6, 71},
{6, 73},
{6, 79},
{6, 83},
{6, 84},
{6, 87},
{6, 88},
{6, 90},
{6, 91},
{6, 93},
{6, 95},
{6, 96},
{6, 97},
{6, 98},
{6, 99},
{6, 101},
{6, 103},
{6, 104},
{6, 105},
{6, 107},
{6, 108},
{6, 111},
{6, 113},
{6, 114},
{6, 115},
{6, 116},
{6, 118},
{7, 14},
{7, 15},
{7, 16},
{7, 17},
{7, 18},
{7, 20},
{7, 21},
{7, 22},
{7, 24},
{7, 30},
{7, 33},
{7, 35},
{7, 37},
{7, 41},
{7, 42},
{7, 47},
{7, 49},
{7, 50},
{7, 51},
{7, 55},
{7, 58},
{7, 60},
{7, 61},
{7, 63},
{7, 64},
{7, 65},
{7, 66},
{7, 71},
{7, 72},
{7, 73},
{7, 75},
{7, 76},
{7, 78},
{7, 79},
{7, 81},
{7, 82},
{7, 85},
{7, 86},
{7, 88},
{7, 90},
{7, 91},
{7, 92},
{7, 96},
{7, 97},
{7, 99},
{7, 103},
{7, 104},
{7, 106},
{7, 108},
{7, 109},
{7, 112},
{7, 115},
{7, 118},
{7, 120},
{8, 9},
{8, 10},
{8, 11},
{8, 12},
{8, 14},
{8, 17},
{8, 20},
{8, 21},
{8, 22},
{8, 23},
{8, 24},
{8, 26},
{8, 28},
{8, 30},
{8, 31},
{8, 32},
{8, 36},
{8, 37},
{8, 38},
{8, 42},
{8, 44},
{8, 45},
{8, 46},
{8, 47},
{8, 49},
{8, 50},
{8, 51},
{8, 53},
{8, 54},
{8, 55},
{8, 59},
{8, 62},
{8, 65},
{8, 68},
{8, 69},
{8, 70},
{8, 71},
{8, 75},
{8, 77},
{8, 79},
{8, 80},
{8, 81},
{8, 88},
{8, 89},
{8, 91},
{8, 92},
{8, 95},
{8, 98},
{8, 99},
{8, 100},
{8, 101},
{8, 102},
{8, 103},
{8, 107},
{8, 109},
{8, 111},
{8, 112},
{8, 114},
{8, 117},
{9, 10},
{9, 14},
{9, 18},
{9, 21},
{9, 23},
{9, 25},
{9, 28},
{9, 30},
{9, 31},
{9, 32},
{9, 33},
{9, 38},
{9, 39},
{9, 42},
{9, 43},
{9, 47},
{9, 51},
{9, 52},
{9, 53},
{9, 54},
{9, 56},
{9, 60},
{9, 65},
{9, 71},
{9, 72},
{9, 73},
{9, 75},
{9, 79},
{9, 83},
{9, 86},
{9, 87},
{9, 88},
{9, 95},
{9, 96},
{9, 97},
{9, 98},
{9, 99},
{9, 102},
{9, 106},
{9, 110},
{9, 112},
{9, 114},
{9, 115},
{9, 117},
{9, 118},
{9, 119},
{10, 12},
{10, 15},
{10, 17},
{10, 18},
{10, 23},
{10, 24},
{10, 26},
{10, 30},
{10, 36},
{10, 39},
{10, 40},
{10, 44},
{10, 46},
{10, 47},
{10, 49},
{10, 51},
{10, 52},
{10, 57},
{10, 58},
{10, 59},
{10, 60},
{10, 62},
{10, 63},
{10, 64},
{10, 67},
{10, 71},
{10, 72},
{10, 73},
{10, 76},
{10, 77},
{10, 80},
{10, 81},
{10, 82},
{10, 84},
{10, 86},
{10, 88},
{10, 89},
{10, 92},
{10, 93},
{10, 95},
{10, 98},
{10, 100},
{10, 103},
{10, 106},
{10, 107},
{10, 110},
{10, 116},
{10, 118},
{11, 18},
{11, 19},
{11, 20},
{11, 22},
{11, 24},
{11, 30},
{11, 31},
{11, 32},
{11, 33},
{11, 34},
{11, 35},
{11, 36},
{11, 40},
{11, 43},
{11, 47},
{11, 48},
{11, 49},
{11, 50},
{11, 54},
{11, 55},
{11, 56},
{11, 59},
{11, 61},
{11, 62},
{11, 64},
{11, 65},
{11, 69},
{11, 70},
{11, 71},
{11, 72},
{11, 76},
{11, 77},
{11, 79},
{11, 80},
{11, 83},
{11, 84},
{11, 85},
{11, 90},
{11, 91},
{11, 92},
{11, 95},
{11, 96},
{11, 97},
{11, 98},
{11, 100},
{11, 103},
{11, 107},
{11, 109},
{11, 112},
{11, 113},
{11, 114},
{11, 115},
{11, 116},
{11, 117},
{11, 118},
{12, 14},
{12, 15},
{12, 16},
{12, 17},
{12, 18},
{12, 19},
{12, 23},
{12, 26},
{12, 28},
{12, 29},
{12, 30},
{12, 33},
{12, 38},
{12, 39},
{12, 40},
{12, 42},
{12, 48},
{12, 49},
{12, 50},
{12, 52},
{12, 54},
{12, 58},
{12, 62},
{12, 63},
{12, 64},
{12, 66},
{12, 67},
{12, 69},
{12, 70},
{12, 71},
{12, 73},
{12, 79},
{12, 80},
{12, 81},
{12, 83},
{12, 85},
{12, 87},
{12, 88},
{12, 90},
{12, 93},
{12, 94},
{12, 95},
{12, 98},
{12, 100},
{12, 101},
{12, 104},
{12, 106},
{12, 111},
{12, 112},
{13, 14},
{13, 19},
{13, 23},
{13, 26},
{13, 28},
{13, 30},
{13, 31},
{13, 32},
{13, 38},
{13, 39},
{13, 40},
{13, 41},
{13, 49},
{13, 51},
{13, 53},
{13, 57},
{13, 62},
{13, 63},
{13, 64},
{13, 65},
{13, 67},
{13, 68},
{13, 72},
{13, 73},
{13, 74},
{13, 75},
{13, 77},
{13, 78},
{13, 79},
{13, 81},
{13, 82},
{13, 86},
{13, 89},
{13, 90},
{13, 91},
{13, 92},
{13, 94},
{13, 95},
{13, 96},
{13, 98},
{13, 100},
{13, 103},
{13, 104},
{13, 105},
{13, 106},
{13, 107},
{13, 110},
{13, 112},
{13, 113},
{13, 114},
{13, 119},
{14, 15},
{14, 20},
{14, 22},
{14, 25},
{14, 27},
{14, 28},
{14, 29},
{14, 30},
{14, 33},
{14, 36},
{14, 39},
{14, 41},
{14, 42},
{14, 43},
{14, 45},
{14, 47},
{14, 48},
{14, 51},
{14, 52},
{14, 53},
{14, 55},
{14, 58},
{14, 59},
{14, 62},
{14, 64},
{14, 66},
{14, 69},
{14, 70},
{14, 71},
{14, 72},
{14, 73},
{14, 75},
{14, 78},
{14, 79},
{14, 82},
{14, 84},
{14, 85},
{14, 86},
{14, 87},
{14, 88},
{14, 89},
{14, 91},
{14, 93},
{14, 94},
{14, 95},
{14, 98},
{14, 99},
{14, 100},
{14, 101},
{14, 105},
{14, 106},
{14, 107},
{14, 108},
{14, 110},
{14, 114},
{14, 116},
{14, 118},
{15, 16},
{15, 17},
{15, 18},
{15, 19},
{15, 20},
{15, 21},
{15, 23},
{15, 25},
{15, 31},
{15, 32},
{15, 33},
{15, 34},
{15, 38},
{15, 40},
{15, 41},
{15, 42},
{15, 44},
{15, 46},
{15, 47},
{15, 52},
{15, 53},
{15, 55},
{15, 56},
{15, 58},
{15, 59},
{15, 60},
{15, 61},
{15, 62},
{15, 65},
{15, 66},
{15, 68},
{15, 69},
{15, 70},
{15, 73},
{15, 74},
{15, 75},
{15, 76},
{15, 79},
{15, 80},
{15, 81},
{15, 85},
{15, 86},
{15, 88},
{15, 89},
{15, 90},
{15, 93},
{15, 96},
{15, 97},
{15, 100},
{15, 101},
{15, 102},
{15, 103},
{15, 105},
{15, 107},
{15, 110},
{15, 111},
{15, 114},
{15, 120},
{16, 19},
{16, 22},
{16, 23},
{16, 25},
{16, 26},
{16, 27},
{16, 29},
{16, 33},
{16, 35},
{16, 36},
{16, 37},
{16, 39},
{16, 40},
{16, 44},
{16, 48},
{16, 49},
{16, 52},
{16, 55},
{16, 57},
{16, 60},
{16, 62},
{16, 64},
{16, 67},
{16, 69},
{16, 70},
{16, 71},
{16, 74},
{16, 75},
{16, 78},
{16, 80},
{16, 82},
{16, 85},
{16, 87},
{16, 88},
{16, 89},
{16, 91},
{16, 94},
{16, 97},
{16, 101},
{16, 104},
{16, 105},
{16, 106},
{16, 108},
{16, 109},
{16, 110},
{16, 113},
{16, 114},
{16, 115},
{16, 117},
{16, 119},
{16, 120},
{17, 18},
{17, 22},
{17, 26},
{17, 29},
{17, 30},
{17, 31},
{17, 33},
{17, 34},
{17, 36},
{17, 39},
{17, 43},
{17, 44},
{17, 47},
{17, 51},
{17, 54},
{17, 55},
{17, 57},
{17, 58},
{17, 59},
{17, 60},
{17, 62},
{17, 64},
{17, 65},
{17, 66},
{17, 69},
{17, 70},
{17, 72},
{17, 74},
{17, 75},
{17, 79},
{17, 82},
{17, 83},
{17, 84},
{17, 85},
{17, 86},
{17, 89},
{17, 90},
{17, 91},
{17, 92},
{17, 93},
{17, 95},
{17, 96},
{17, 97},
{17, 98},
{17, 99},
{17, 101},
{17, 102},
{17, 104},
{17, 105},
{17, 107},
{17, 108},
{17, 111},
{17, 112},
{17, 115},
{17, 116},
{18, 21},
{18, 22},
{18, 26},
{18, 27},
{18, 30},
{18, 32},
{18, 34},
{18, 35},
{18, 37},
{18, 41},
{18, 42},
{18, 43},
{18, 44},
{18, 46},
{18, 47},
{18, 48},
{18, 50},
{18, 52},
{18, 54},
{18, 55},
{18, 57},
{18, 59},
{18, 60},
{18, 61},
{18, 63},
{18, 65},
{18, 66},
{18, 70},
{18, 73},
{18, 75},
{18, 76},
{18, 79},
{18, 80},
{18, 81},
{18, 82},
{18, 83},
{18, 84},
{18, 85},
{18, 88},
{18, 93},
{18, 94},
{18, 95},
{18, 99},
{18, 100},
{18, 101},
{18, 104},
{18, 109},
{18, 114},
{18, 115},
{18, 116},
{18, 118},
{18, 119},
{18, 120},
{19, 21},
{19, 22},
{19, 24},
{19, 26},
{19, 28},
{19, 35},
{19, 36},
{19, 37},
{19, 38},
{19, 39},
{19, 42},
{19, 45},
{19, 48},
{19, 49},
{19, 52},
{19, 55},
{19, 56},
{19, 57},
{19, 58},
{19, 59},
{19, 60},
{19, 61},
{19, 62},
{19, 65},
{19, 66},
{19, 69},
{19, 70},
{19, 72},
{19, 73},
{19, 74},
{19, 75},
{19, 76},
{19, 78},
{19, 82},
{19, 88},
{19, 91},
{19, 94},
{19, 96},
{19, 99},
{19, 101},
{19, 102},
{19, 105},
{19, 107},
{19, 109},
{19, 111},
{19, 112},
{19, 114},
{19, 115},
{19, 116},
{19, 118},
{19, 119},
{19, 120},
{20, 23},
{20, 29},
{20, 30},
{20, 32},
{20, 34},
{20, 35},
{20, 38},
{20, 39},
{20, 41},
{20, 42},
{20, 43},
{20, 45},
{20, 47},
{20, 48},
{20, 50},
{20, 51},
{20, 53},
{20, 54},
{20, 59},
{20, 60},
{20, 61},
{20, 62},
{20, 63},
{20, 65},
{20, 67},
{20, 68},
{20, 70},
{20, 72},
{20, 73},
{20, 74},
{20, 78},
{20, 79},
{20, 80},
{20, 82},
{20, 85},
{20, 87},
{20, 89},
{20, 91},
{20, 93},
{20, 94},
{20, 96},
{20, 98},
{20, 101},
{20, 103},
{20, 106},
{20, 107},
{20, 108},
{20, 109},
{20, 113},
{20, 114},
{20, 115},
{20, 116},
{20, 117},
{20, 118},
{20, 119},
{20, 120},
{21, 23},
{21, 25},
{21, 26},
{21, 27},
{21, 29},
{21, 31},
{21, 33},
{21, 34},
{21, 35},
{21, 36},
{21, 42},
{21, 44},
{21, 47},
{21, 48},
{21, 49},
{21, 51},
{21, 57},
{21, 59},
{21, 61},
{21, 62},
{21, 63},
{21, 64},
{21, 65},
{21, 66},
{21, 70},
{21, 71},
{21, 76},
{21, 77},
{21, 78},
{21, 81},
{21, 83},
{21, 84},
{21, 88},
{21, 90},
{21, 93},
{21, 94},
{21, 95},
{21, 97},
{21, 102},
{21, 104},
{21, 112},
{21, 114},
{21, 115},
{21, 116},
{21, 118},
{21, 119},
{21, 120},
{22, 23},
{22, 24},
{22, 29},
{22, 32},
{22, 34},
{22, 36},
{22, 37},
{22, 40},
{22, 41},
{22, 42},
{22, 44},
{22, 47},
{22, 48},
{22, 53},
{22, 55},
{22, 56},
{22, 64},
{22, 66},
{22, 71},
{22, 73},
{22, 75},
{22, 76},
{22, 77},
{22, 78},
{22, 79},
{22, 81},
{22, 82},
{22, 85},
{22, 88},
{22, 95},
{22, 97},
{22, 98},
{22, 100},
{22, 101},
{22, 102},
{22, 105},
{22, 106},
{22, 112},
{22, 113},
{22, 114},
{23, 24},
{23, 25},
{23, 26},
{23, 27},
{23, 33},
{23, 35},
{23, 40},
{23, 42},
{23, 44},
{23, 48},
{23, 50},
{23, 51},
{23, 52},
{23, 54},
{23, 56},
{23, 57},
{23, 58},
{23, 59},
{23, 61},
{23, 66},
{23, 68},
{23, 72},
{23, 75},
{23, 77},
{23, 80},
{23, 82},
{23, 90},
{23, 93},
{23, 94},
{23, 95},
{23, 96},
{23, 100},
{23, 101},
{23, 102},
{23, 103},
{23, 106},
{23, 107},
{23, 109},
{23, 112},
{23, 113},
{23, 117},
{23, 118},
{23, 120},
{24, 27},
{24, 28},
{24, 30},
{24, 32},
{24, 33},
{24, 34},
{24, 37},
{24, 38},
{24, 39},
{24, 41},
{24, 44},
{24, 45},
{24, 47},
{24, 49},
{24, 52},
{24, 53},
{24, 54},
{24, 57},
{24, 61},
{24, 64},
{24, 67},
{24, 68},
{24, 70},
{24, 71},
{24, 73},
{24, 74},
{24, 78},
{24, 80},
{24, 84},
{24, 85},
{24, 87},
{24, 88},
{24, 89},
{24, 92},
{24, 93},
{24, 95},
{24, 96},
{24, 98},
{24, 102},
{24, 103},
{24, 106},
{24, 107},
{24, 108},
{24, 109},
{24, 114},
{24, 116},
{24, 117},
{24, 120},
{25, 26},
{25, 27},
{25, 29},
{25, 30},
{25, 32},
{25, 36},
{25, 38},
{25, 40},
{25, 41},
{25, 43},
{25, 44},
{25, 45},
{25, 46},
{25, 47},
{25, 51},
{25, 52},
{25, 53},
{25, 60},
{25, 67},
{25, 68},
{25, 69},
{25, 70},
{25, 73},
{25, 74},
{25, 75},
{25, 76},
{25, 78},
{25, 80},
{25, 81},
{25, 85},
{25, 89},
{25, 91},
{25, 94},
{25, 95},
{25, 97},
{25, 99},
{25, 102},
{25, 103},
{25, 104},
{25, 105},
{25, 107},
{25, 110},
{25, 111},
{25, 113},
{25, 116},
{25, 117},
{25, 119},
{25, 120},
{26, 29},
{26, 31},
{26, 32},
{26, 35},
{26, 37},
{26, 38},
{26, 39},
{26, 40},
{26, 42},
{26, 45},
{26, 47},
{26, 50},
{26, 51},
{26, 56},
{26, 57},
{26, 58},
{26, 59},
{26, 60},
{26, 65},
{26, 66},
{26, 68},
{26, 69},
{26, 71},
{26, 72},
{26, 74},
{26, 76},
{26, 77},
{26, 79},
{26, 80},
{26, 82},
{26, 85},
{26, 86},
{26, 89},
{26, 90},
{26, 91},
{26, 92},
{26, 99},
{26, 100},
{26, 103},
{26, 106},
{26, 107},
{26, 108},
{26, 109},
{26, 110},
{26, 111},
{26, 112},
{26, 113},
{26, 114},
{26, 119},
{26, 120},
{27, 32},
{27, 33},
{27, 34},
{27, 35},
{27, 36},
{27, 43},
{27, 45},
{27, 47},
{27, 49},
{27, 51},
{27, 55},
{27, 57},
{27, 59},
{27, 64},
{27, 65},
{27, 68},
{27, 70},
{27, 71},
{27, 72},
{27, 77},
{27, 80},
{27, 86},
{27, 87},
{27, 88},
{27, 90},
{27, 91},
{27, 92},
{27, 93},
{27, 99},
{27, 102},
{27, 104},
{27, 105},
{27, 106},
{27, 107},
{27, 108},
{27, 111},
{27, 112},
{27, 113},
{27, 114},
{27, 115},
{27, 116},
{27, 117},
{27, 118},
{28, 29},
{28, 30},
{28, 31},
{28, 32},
{28, 33},
{28, 38},
{28, 45},
{28, 46},
{28, 48},
{28, 50},
{28, 51},
{28, 53},
{28, 54},
{28, 56},
{28, 60},
{28, 61},
{28, 64},
{28, 66},
{28, 70},
{28, 71},
{28, 76},
{28, 78},
{28, 82},
{28, 83},
{28, 84},
{28, 85},
{28, 87},
{28, 90},
{28, 95},
{28, 97},
{28, 99},
{28, 101},
{28, 105},
{28, 106},
{28, 107},
{28, 110},
{28, 112},
{28, 115},
{28, 117},
{29, 31},
{29, 33},
{29, 36},
{29, 37},
{29, 38},
{29, 39},
{29, 41},
{29, 45},
{29, 50},
{29, 53},
{29, 55},
{29, 56},
{29, 57},
{29, 59},
{29, 62},
{29, 63},
{29, 66},
{29, 69},
{29, 78},
{29, 80},
{29, 83},
{29, 84},
{29, 88},
{29, 90},
{29, 91},
{29, 92},
{29, 94},
{29, 96},
{29, 99},
{29, 101},
{29, 102},
{29, 104},
{29, 107},
{29, 109},
{29, 111},
{29, 114},
{29, 117},
{29, 118},
{29, 120},
{30, 31},
{30, 33},
{30, 34},
{30, 36},
{30, 38},
{30, 40},
{30, 41},
{30, 43},
{30, 44},
{30, 46},
{30, 47},
{30, 48},
{30, 51},
{30, 55},
{30, 57},
{30, 58},
{30, 62},
{30, 64},
{30, 65},
{30, 66},
{30, 73},
{30, 74},
{30, 75},
{30, 78},
{30, 79},
{30, 81},
{30, 82},
{30, 83},
{30, 87},
{30, 88},
{30, 92},
{30, 95},
{30, 97},
{30, 101},
{30, 102},
{30, 103},
{30, 104},
{30, 105},
{30, 106},
{30, 107},
{30, 108},
{30, 110},
{30, 111},
{30, 112},
{30, 115},
{30, 117},
{30, 119},
{30, 120},
{31, 32},
{31, 38},
{31, 41},
{31, 46},
{31, 49},
{31, 50},
{31, 51},
{31, 53},
{31, 55},
{31, 56},
{31, 57},
{31, 58},
{31, 59},
{31, 63},
{31, 66},
{31, 72},
{31, 73},
{31, 74},
{31, 75},
{31, 77},
{31, 81},
{31, 82},
{31, 83},
{31, 84},
{31, 85},
{31, 86},
{31, 87},
{31, 88},
{31, 92},
{31, 94},
{31, 98},
{31, 100},
{31, 102},
{31, 103},
{31, 111},
{31, 113},
{31, 114},
{31, 115},
{31, 117},
{31, 119},
{31, 120},
{32, 33},
{32, 35},
{32, 36},
{32, 41},
{32, 42},
{32, 43},
{32, 45},
{32, 49},
{32, 54},
{32, 55},
{32, 56},
{32, 58},
{32, 62},
{32, 67},
{32, 70},
{32, 76},
{32, 77},
{32, 79},
{32, 80},
{32, 82},
{32, 83},
{32, 84},
{32, 92},
{32, 94},
{32, 95},
{32, 96},
{32, 99},
{32, 103},
{32, 104},
{32, 105},
{32, 108},
{32, 110},
{32, 115},
{32, 116},
{32, 120},
{33, 34},
{33, 37},
{33, 39},
{33, 40},
{33, 41},
{33, 45},
{33, 46},
{33, 48},
{33, 49},
{33, 50},
{33, 52},
{33, 53},
{33, 57},
{33, 58},
{33, 60},
{33, 61},
{33, 63},
{33, 64},
{33, 66},
{33, 71},
{33, 72},
{33, 76},
{33, 77},
{33, 79},
{33, 85},
{33, 89},
{33, 91},
{33, 95},
{33, 101},
{33, 103},
{33, 108},
{33, 109},
{33, 111},
{33, 112},
{33, 113},
{33, 115},
{33, 116},
{33, 117},
{33, 118},
{33, 119},
{34, 35},
{34, 37},
{34, 40},
{34, 42},
{34, 43},
{34, 49},
{34, 50},
{34, 51},
{34, 54},
{34, 56},
{34, 57},
{34, 58},
{34, 60},
{34, 61},
{34, 64},
{34, 65},
{34, 66},
{34, 68},
{34, 74},
{34, 75},
{34, 79},
{34, 80},
{34, 81},
{34, 82},
{34, 86},
{34, 88},
{34, 89},
{34, 94},
{34, 96},
{34, 97},
{34, 98},
{34, 100},
{34, 101},
{34, 102},
{34, 103},
{34, 104},
{34, 107},
{34, 108},
{34, 110},
{34, 111},
{34, 112},
{34, 114},
{34, 115},
{34, 116},
{34, 119},
{35, 37},
{35, 38},
{35, 39},
{35, 40},
{35, 41},
{35, 42},
{35, 44},
{35, 45},
{35, 46},
{35, 47},
{35, 48},
{35, 49},
{35, 52},
{35, 55},
{35, 56},
{35, 62},
{35, 64},
{35, 65},
{35, 66},
{35, 70},
{35, 72},
{35, 73},
{35, 74},
{35, 75},
{35, 76},
{35, 77},
{35, 79},
{35, 83},
{35, 85},
{35, 89},
{35, 90},
{35, 91},
{35, 92},
{35, 93},
{35, 95},
{35, 96},
{35, 99},
{35, 100},
{35, 101},
{35, 102},
{35, 105},
{35, 106},
{35, 108},
{35, 113},
{35, 115},
{36, 39},
{36, 41},
{36, 43},
{36, 45},
{36, 49},
{36, 50},
{36, 51},
{36, 52},
{36, 53},
{36, 54},
{36, 55},
{36, 56},
{36, 57},
{36, 59},
{36, 62},
{36, 65},
{36, 67},
{36, 68},
{36, 71},
{36, 72},
{36, 75},
{36, 78},
{36, 79},
{36, 84},
{36, 86},
{36, 89},
{36, 91},
{36, 94},
{36, 95},
{36, 97},
{36, 98},
{36, 100},
{36, 103},
{36, 105},
{36, 108},
{36, 111},
{36, 112},
{36, 115},
{36, 116},
{36, 117},
{36, 118},
{36, 119},
{36, 120},
{37, 42},
{37, 53},
{37, 55},
{37, 56},
{37, 57},
{37, 58},
{37, 62},
{37, 63},
{37, 66},
{37, 68},
{37, 72},
{37, 73},
{37, 80},
{37, 82},
{37, 83},
{37, 86},
{37, 87},
{37, 89},
{37, 90},
{37, 91},
{37, 92},
{37, 94},
{37, 95},
{37, 96},
{37, 97},
{37, 98},
{37, 101},
{37, 102},
{37, 103},
{37, 109},
{37, 111},
{37, 114},
{37, 116},
{37, 117},
{37, 118},
{37, 119},
{37, 120},
{38, 40},
{38, 41},
{38, 43},
{38, 45},
{38, 48},
{38, 50},
{38, 51},
{38, 54},
{38, 57},
{38, 63},
{38, 65},
{38, 69},
{38, 70},
{38, 71},
{38, 72},
{38, 73},
{38, 74},
{38, 77},
{38, 79},
{38, 81},
{38, 82},
{38, 83},
{38, 85},
{38, 86},
{38, 88},
{38, 90},
{38, 94},
{38, 95},
{38, 96},
{38, 100},
{38, 104},
{38, 106},
{38, 107},
{38, 110},
{38, 112},
{38, 113},
{38, 115},
{38, 116},
{38, 117},
{38, 119},
{39, 40},
{39, 42},
{39, 45},
{39, 48},
{39, 49},
{39, 50},
{39, 53},
{39, 59},
{39, 62},
{39, 63},
{39, 64},
{39, 67},
{39, 70},
{39, 71},
{39, 74},
{39, 76},
{39, 77},
{39, 79},
{39, 80},
{39, 85},
{39, 89},
{39, 90},
{39, 91},
{39, 93},
{39, 94},
{39, 95},
{39, 96},
{39, 102},
{39, 104},
{39, 106},
{39, 107},
{39, 109},
{39, 110},
{39, 111},
{39, 113},
{39, 119},
{40, 41},
{40, 42},
{40, 43},
{40, 44},
{40, 45},
{40, 46},
{40, 52},
{40, 54},
{40, 56},
{40, 57},
{40, 58},
{40, 61},
{40, 67},
{40, 69},
{40, 70},
{40, 71},
{40, 72},
{40, 74},
{40, 75},
{40, 76},
{40, 79},
{40, 81},
{40, 82},
{40, 85},
{40, 86},
{40, 87},
{40, 88},
{40, 89},
{40, 90},
{40, 92},
{40, 93},
{40, 95},
{40, 98},
{40, 99},
{40, 103},
{40, 104},
{40, 110},
{40, 114},
{40, 115},
{40, 116},
{40, 120},
{41, 43},
{41, 45},
{41, 46},
{41, 47},
{41, 48},
{41, 50},
{41, 51},
{41, 53},
{41, 57},
{41, 59},
{41, 61},
{41, 62},
{41, 65},
{41, 66},
{41, 67},
{41, 69},
{41, 73},
{41, 79},
{41, 80},
{41, 83},
{41, 85},
{41, 86},
{41, 87},
{41, 89},
{41, 90},
{41, 92},
{41, 93},
{41, 94},
{41, 97},
{41, 99},
{41, 101},
{41, 102},
{41, 104},
{41, 108},
{41, 109},
{41, 110},
{41, 111},
{41, 112},
{41, 114},
{41, 115},
{42, 43},
{42, 46},
{42, 48},
{42, 49},
{42, 51},
{42, 52},
{42, 54},
{42, 55},
{42, 58},
{42, 59},
{42, 60},
{42, 63},
{42, 64},
{42, 65},
{42, 66},
{42, 70},
{42, 74},
{42, 77},
{42, 78},
{42, 80},
{42, 83},
{42, 85},
{42, 86},
{42, 87},
{42, 89},
{42, 90},
{42, 91},
{42, 92},
{42, 94},
{42, 96},
{42, 97},
{42, 102},
{42, 103},
{42, 104},
{42, 105},
{42, 108},
{42, 111},
{42, 113},
{42, 115},
{42, 117},
{42, 119},
{43, 44},
{43, 45},
{43, 46},
{43, 47},
{43, 48},
{43, 50},
{43, 51},
{43, 53},
{43, 54},
{43, 55},
{43, 56},
{43, 60},
{43, 61},
{43, 65},
{43, 68},
{43, 71},
{43, 72},
{43, 75},
{43, 76},
{43, 77},
{43, 85},
{43, 86},
{43, 87},
{43, 91},
{43, 93},
{43, 95},
{43, 96},
{43, 97},
{43, 101},
{43, 106},
{43, 107},
{43, 108},
{43, 111},
{43, 112},
{43, 113},
{43, 115},
{43, 117},
{43, 119},
{44, 45},
{44, 46},
{44, 48},
{44, 49},
{44, 51},
{44, 55},
{44, 56},
{44, 59},
{44, 60},
{44, 62},
{44, 63},
{44, 67},
{44, 71},
{44, 72},
{44, 73},
{44, 76},
{44, 80},
{44, 82},
{44, 84},
{44, 85},
{44, 94},
{44, 95},
{44, 97},
{44, 99},
{44, 100},
{44, 101},
{44, 105},
{44, 107},
{44, 108},
{44, 109},
{44, 111},
{44, 114},
{44, 118},
{44, 119},
{44, 120},
{45, 46},
{45, 47},
{45, 49},
{45, 52},
{45, 53},
{45, 60},
{45, 61},
{45, 63},
{45, 66},
{45, 69},
{45, 70},
{45, 72},
{45, 74},
{45, 75},
{45, 79},
{45, 80},
{45, 83},
{45, 85},
{45, 87},
{45, 88},
{45, 91},
{45, 92},
{45, 93},
{45, 94},
{45, 96},
{45, 100},
{45, 102},
{45, 104},
{45, 106},
{45, 107},
{45, 109},
{45, 110},
{45, 113},
{45, 114},
{45, 115},
{45, 117},
{45, 118},
{45, 119},
{45, 120},
{46, 50},
{46, 53},
{46, 54},
{46, 55},
{46, 56},
{46, 57},
{46, 59},
{46, 61},
{46, 62},
{46, 64},
{46, 71},
{46, 73},
{46, 78},
{46, 79},
{46, 81},
{46, 82},
{46, 84},
{46, 89},
{46, 90},
{46, 92},
{46, 96},
{46, 98},
{46, 100},
{46, 101},
{46, 103},
{46, 104},
{46, 105},
{46, 106},
{46, 107},
{46, 109},
{46, 110},
{46, 111},
{46, 113},
{46, 115},
{46, 116},
{46, 117},
{46, 118},
{46, 120},
{47, 48},
{47, 49},
{47, 52},
{47, 53},
{47, 54},
{47, 55},
{47, 56},
{47, 59},
{47, 60},
{47, 61},
{47, 63},
{47, 64},
{47, 66},
{47, 67},
{47, 69},
{47, 70},
{47, 71},
{47, 73},
{47, 74},
{47, 79},
{47, 82},
{47, 86},
{47, 88},
{47, 93},
{47, 94},
{47, 95},
{47, 96},
{47, 97},
{47, 99},
{47, 100},
{47, 102},
{47, 103},
{47, 105},
{47, 107},
{47, 108},
{47, 111},
{47, 112},
{47, 114},
{47, 115},
{47, 118},
{47, 120},
{48, 50},
{48, 53},
{48, 55},
{48, 56},
{48, 60},
{48, 64},
{48, 65},
{48, 69},
{48, 70},
{48, 71},
{48, 72},
{48, 76},
{48, 79},
{48, 81},
{48, 84},
{48, 85},
{48, 88},
{48, 89},
{48, 90},
{48, 92},
{48, 94},
{48, 95},
{48, 96},
{48, 102},
{48, 104},
{48, 105},
{48, 107},
{48, 108},
{48, 109},
{48, 112},
{48, 114},
{48, 117},
{49, 52},
{49, 55},
{49, 57},
{49, 62},
{49, 63},
{49, 73},
{49, 74},
{49, 76},
{49, 78},
{49, 81},
{49, 83},
{49, 84},
{49, 86},
{49, 89},
{49, 94},
{49, 97},
{49, 100},
{49, 102},
{49, 103},
{49, 104},
{49, 107},
{49, 108},
{49, 110},
{49, 113},
{49, 114},
{49, 116},
{49, 119},
{49, 120},
{50, 51},
{50, 52},
{50, 54},
{50, 55},
{50, 57},
{50, 58},
{50, 59},
{50, 60},
{50, 63},
{50, 66},
{50, 67},
{50, 68},
{50, 69},
{50, 70},
{50, 71},
{50, 73},
{50, 75},
{50, 76},
{50, 78},
{50, 79},
{50, 80},
{50, 81},
{50, 82},
{50, 84},
{50, 85},
{50, 86},
{50, 87},
{50, 89},
{50, 92},
{50, 93},
{50, 94},
{50, 96},
{50, 97},
{50, 99},
{50, 101},
{50, 103},
{50, 107},
{50, 110},
{50, 112},
{50, 113},
{50, 114},
{50, 117},
{51, 52},
{51, 54},
{51, 55},
{51, 57},
{51, 63},
{51, 69},
{51, 70},
{51, 71},
{51, 73},
{51, 75},
{51, 76},
{51, 77},
{51, 78},
{51, 81},
{51, 82},
{51, 88},
{51, 91},
{51, 93},
{51, 97},
{51, 98},
{51, 99},
{51, 101},
{51, 103},
{51, 108},
{51, 110},
{51, 111},
{51, 114},
{51, 119},
{51, 120},
{52, 53},
{52, 55},
{52, 56},
{52, 57},
{52, 58},
{52, 59},
{52, 60},
{52, 61},
{52, 63},
{52, 64},
{52, 65},
{52, 66},
{52, 67},
{52, 68},
{52, 72},
{52, 76},
{52, 82},
{52, 85},
{52, 86},
{52, 87},
{52, 88},
{52, 89},
{52, 91},
{52, 93},
{52, 95},
{52, 96},
{52, 97},
{52, 98},
{52, 99},
{52, 100},
{52, 101},
{52, 102},
{52, 106},
{52, 107},
{52, 108},
{52, 109},
{52, 110},
{52, 111},
{52, 115},
{52, 116},
{52, 118},
{52, 119},
{53, 54},
{53, 55},
{53, 58},
{53, 59},
{53, 63},
{53, 66},
{53, 68},
{53, 69},
{53, 71},
{53, 72},
{53, 75},
{53, 77},
{53, 78},
{53, 80},
{53, 82},
{53, 83},
{53, 84},
{53, 86},
{53, 87},
{53, 90},
{53, 91},
{53, 93},
{53, 94},
{53, 95},
{53, 96},
{53, 100},
{53, 101},
{53, 102},
{53, 104},
{53, 105},
{53, 106},
{53, 107},
{53, 108},
{53, 110},
{53, 112},
{53, 115},
{53, 116},
{54, 55},
{54, 57},
{54, 58},
{54, 59},
{54, 60},
{54, 62},
{54, 64},
{54, 67},
{54, 68},
{54, 69},
{54, 72},
{54, 74},
{54, 75},
{54, 76},
{54, 77},
{54, 87},
{54, 90},
{54, 94},
{54, 95},
{54, 96},
{54, 98},
{54, 102},
{54, 103},
{54, 109},
{54, 110},
{54, 111},
{54, 115},
{54, 118},
{54, 119},
{55, 56},
{55, 58},
{55, 62},
{55, 64},
{55, 65},
{55, 68},
{55, 70},
{55, 71},
{55, 73},
{55, 74},
{55, 75},
{55, 77},
{55, 81},
{55, 82},
{55, 83},
{55, 84},
{55, 85},
{55, 89},
{55, 90},
{55, 93},
{55, 94},
{55, 96},
{55, 100},
{55, 102},
{55, 103},
{55, 105},
{55, 106},
{55, 107},
{55, 109},
{55, 110},
{55, 113},
{55, 115},
{55, 117},
{55, 119},
{56, 58},
{56, 59},
{56, 61},
{56, 63},
{56, 64},
{56, 65},
{56, 66},
{56, 67},
{56, 69},
{56, 72},
{56, 74},
{56, 75},
{56, 76},
{56, 80},
{56, 82},
{56, 84},
{56, 85},
{56, 88},
{56, 90},
{56, 95},
{56, 99},
{56, 101},
{56, 103},
{56, 104},
{56, 106},
{56, 107},
{56, 108},
{56, 110},
{56, 111},
{56, 118},
{57, 58},
{57, 60},
{57, 63},
{57, 64},
{57, 65},
{57, 68},
{57, 71},
{57, 73},
{57, 75},
{57, 76},
{57, 77},
{57, 80},
{57, 81},
{57, 83},
{57, 86},
{57, 90},
{57, 91},
{57, 92},
{57, 93},
{57, 96},
{57, 97},
{57, 98},
{57, 101},
{57, 103},
{57, 106},
{57, 107},
{57, 108},
{57, 113},
{57, 118},
{57, 119},
{58, 60},
{58, 63},
{58, 64},
{58, 67},
{58, 68},
{58, 70},
{58, 71},
{58, 75},
{58, 76},
{58, 77},
{58, 81},
{58, 82},
{58, 84},
{58, 87},
{58, 91},
{58, 92},
{58, 93},
{58, 95},
{58, 100},
{58, 105},
{58, 106},
{58, 107},
{58, 109},
{58, 114},
{58, 116},
{58, 117},
{58, 119},
{59, 61},
{59, 63},
{59, 65},
{59, 66},
{59, 68},
{59, 73},
{59, 74},
{59, 75},
{59, 76},
{59, 86},
{59, 90},
{59, 92},
{59, 94},
{59, 97},
{59, 100},
{59, 104},
{59, 105},
{59, 114},
{59, 115},
{59, 116},
{59, 118},
{59, 120},
{60, 63},
{60, 64},
{60, 66},
{60, 69},
{60, 71},
{60, 77},
{60, 81},
{60, 83},
{60, 84},
{60, 85},
{60, 87},
{60, 89},
{60, 90},
{60, 92},
{60, 93},
{60, 94},
{60, 96},
{60, 99},
{60, 100},
{60, 104},
{60, 105},
{60, 107},
{60, 113},
{60, 116},
{60, 120},
{61, 63},
{61, 65},
{61, 66},
{61, 67},
{61, 68},
{61, 69},
{61, 70},
{61, 71},
{61, 72},
{61, 73},
{61, 75},
{61, 78},
{61, 81},
{61, 83},
{61, 84},
{61, 85},
{61, 86},
{61, 87},
{61, 91},
{61, 92},
{61, 93},
{61, 96},
{61, 97},
{61, 99},
{61, 103},
{61, 105},
{61, 106},
{61, 107},
{61, 108},
{61, 109},
{61, 112},
{61, 118},
{61, 120},
{62, 64},
{62, 66},
{62, 71},
{62, 74},
{62, 75},
{62, 77},
{62, 78},
{62, 79},
{62, 80},
{62, 82},
{62, 84},
{62, 85},
{62, 86},
{62, 87},
{62, 92},
{62, 96},
{62, 99},
{62, 100},
{62, 102},
{62, 106},
{62, 109},
{62, 111},
{62, 112},
{62, 113},
{62, 115},
{62, 116},
{62, 117},
{62, 118},
{62, 120},
{63, 64},
{63, 65},
{63, 66},
{63, 68},
{63, 69},
{63, 70},
{63, 71},
{63, 72},
{63, 73},
{63, 76},
{63, 77},
{63, 78},
{63, 79},
{63, 80},
{63, 81},
{63, 82},
{63, 84},
{63, 85},
{63, 88},
{63, 89},
{63, 90},
{63, 91},
{63, 92},
{63, 94},
{63, 95},
{63, 96},
{63, 99},
{63, 100},
{63, 103},
{63, 104},
{63, 107},
{63, 109},
{63, 110},
{63, 111},
{63, 113},
{63, 114},
{63, 115},
{63, 116},
{63, 117},
{63, 118},
{63, 119},
{63, 120},
{64, 66},
{64, 67},
{64, 69},
{64, 71},
{64, 77},
{64, 80},
{64, 82},
{64, 85},
{64, 86},
{64, 87},
{64, 88},
{64, 89},
{64, 96},
{64, 97},
{64, 98},
{64, 99},
{64, 101},
{64, 103},
{64, 105},
{64, 106},
{64, 112},
{64, 117},
{65, 66},
{65, 67},
{65, 68},
{65, 69},
{65, 71},
{65, 74},
{65, 76},
{65, 77},
{65, 78},
{65, 81},
{65, 83},
{65, 85},
{65, 87},
{65, 89},
{65, 90},
{65, 95},
{65, 96},
{65, 98},
{65, 100},
{65, 102},
{65, 103},
{65, 104},
{65, 105},
{65, 106},
{65, 108},
{65, 109},
{65, 113},
{65, 116},
{65, 117},
{65, 118},
{66, 67},
{66, 68},
{66, 69},
{66, 70},
{66, 74},
{66, 76},
{66, 77},
{66, 78},
{66, 79},
{66, 80},
{66, 81},
{66, 82},
{66, 85},
{66, 86},
{66, 87},
{66, 89},
{66, 90},
{66, 92},
{66, 94},
{66, 95},
{66, 97},
{66, 98},
{66, 100},
{66, 101},
{66, 102},
{66, 103},
{66, 105},
{66, 106},
{66, 108},
{66, 113},
{66, 116},
{67, 72},
{67, 74},
{67, 76},
{67, 77},
{67, 80},
{67, 82},
{67, 85},
{67, 86},
{67, 87},
{67, 88},
{67, 90},
{67, 95},
{67, 99},
{67, 104},
{67, 107},
{67, 110},
{67, 114},
{67, 119},
{68, 74},
{68, 75},
{68, 76},
{68, 78},
{68, 79},
{68, 81},
{68, 83},
{68, 84},
{68, 85},
{68, 87},
{68, 89},
{68, 94},
{68, 95},
{68, 97},
{68, 99},
{68, 104},
{68, 105},
{68, 106},
{68, 109},
{68, 110},
{68, 111},
{68, 112},
{68, 113},
{68, 115},
{68, 116},
{68, 117},
{68, 119},
{68, 120},
{69, 70},
{69, 72},
{69, 73},
{69, 74},
{69, 75},
{69, 76},
{69, 77},
{69, 80},
{69, 82},
{69, 83},
{69, 84},
{69, 87},
{69, 88},
{69, 90},
{69, 91},
{69, 92},
{69, 94},
{69, 98},
{69, 100},
{69, 101},
{69, 102},
{69, 103},
{69, 106},
{69, 107},
{69, 108},
{69, 111},
{69, 114},
{69, 115},
{69, 116},
{69, 117},
{69, 118},
{69, 119},
{70, 76},
{70, 77},
{70, 78},
{70, 79},
{70, 80},
{70, 82},
{70, 84},
{70, 85},
{70, 90},
{70, 91},
{70, 92},
{70, 94},
{70, 97},
{70, 98},
{70, 100},
{70, 102},
{70, 103},
{70, 104},
{70, 109},
{70, 110},
{70, 114},
{70, 116},
{70, 117},
{70, 119},
{70, 120},
{71, 72},
{71, 74},
{71, 75},
{71, 79},
{71, 80},
{71, 82},
{71, 86},
{71, 88},
{71, 89},
{71, 93},
{71, 96},
{71, 100},
{71, 103},
{71, 104},
{71, 107},
{71, 110},
{71, 113},
{71, 115},
{71, 120},
{72, 73},
{72, 74},
{72, 76},
{72, 77},
{72, 81},
{72, 83},
{72, 84},
{72, 86},
{72, 87},
{72, 88},
{72, 90},
{72, 92},
{72, 97},
{72, 98},
{72, 99},
{72, 101},
{72, 102},
{72, 103},
{72, 104},
{72, 105},
{72, 107},
{72, 110},
{72, 118},
{73, 77},
{73, 79},
{73, 82},
{73, 85},
{73, 87},
{73, 93},
{73, 94},
{73, 95},
{73, 96},
{73, 100},
{73, 101},
{73, 102},
{73, 104},
{73, 106},
{73, 107},
{73, 111},
{73, 115},
{73, 120},
{74, 77},
{74, 84},
{74, 86},
{74, 87},
{74, 88},
{74, 90},
{74, 91},
{74, 95},
{74, 96},
{74, 97},
{74, 102},
{74, 103},
{74, 104},
{74, 105},
{74, 108},
{74, 110},
{74, 114},
{74, 119},
{74, 120},
{75, 76},
{75, 78},
{75, 80},
{75, 83},
{75, 85},
{75, 86},
{75, 87},
{75, 90},
{75, 92},
{75, 93},
{75, 94},
{75, 95},
{75, 96},
{75, 97},
{75, 100},
{75, 101},
{75, 102},
{75, 103},
{75, 104},
{75, 106},
{75, 111},
{75, 113},
{75, 114},
{75, 115},
{75, 119},
{76, 78},
{76, 80},
{76, 85},
{76, 88},
{76, 89},
{76, 93},
{76, 100},
{76, 101},
{76, 102},
{76, 105},
{76, 106},
{76, 107},
{76, 108},
{76, 109},
{76, 110},
{76, 111},
{76, 112},
{76, 113},
{76, 114},
{76, 115},
{76, 117},
{76, 118},
{77, 78},
{77, 80},
{77, 82},
{77, 86},
{77, 88},
{77, 89},
{77, 90},
{77, 93},
{77, 94},
{77, 101},
{77, 102},
{77, 105},
{77, 106},
{77, 109},
{77, 111},
{77, 112},
{77, 113},
{77, 115},
{77, 117},
{77, 118},
{78, 79},
{78, 80},
{78, 81},
{78, 82},
{78, 83},
{78, 84},
{78, 88},
{78, 90},
{78, 93},
{78, 96},
{78, 101},
{78, 102},
{78, 104},
{78, 105},
{78, 106},
{78, 112},
{78, 115},
{78, 116},
{78, 119},
{79, 80},
{79, 81},
{79, 82},
{79, 84},
{79, 86},
{79, 89},
{79, 91},
{79, 92},
{79, 93},
{79, 96},
{79, 99},
{79, 100},
{79, 101},
{79, 102},
{79, 105},
{79, 106},
{79, 109},
{79, 110},
{79, 114},
{79, 115},
{79, 117},
{79, 118},
{79, 119},
{79, 120},
{80, 81},
{80, 85},
{80, 86},
{80, 87},
{80, 89},
{80, 90},
{80, 95},
{80, 97},
{80, 98},
{80, 100},
{80, 106},
{80, 107},
{80, 110},
{80, 111},
{80, 112},
{80, 116},
{80, 117},
{80, 119},
{80, 120},
{81, 82},
{81, 84},
{81, 85},
{81, 86},
{81, 88},
{81, 89},
{81, 90},
{81, 92},
{81, 93},
{81, 95},
{81, 96},
{81, 97},
{81, 99},
{81, 100},
{81, 101},
{81, 104},
{81, 106},
{81, 109},
{81, 110},
{81, 111},
{81, 112},
{81, 113},
{81, 115},
{81, 116},
{81, 120},
{82, 83},
{82, 86},
{82, 87},
{82, 88},
{82, 90},
{82, 92},
{82, 94},
{82, 96},
{82, 97},
{82, 100},
{82, 103},
{82, 104},
{82, 106},
{82, 107},
{82, 110},
{82, 111},
{82, 112},
{82, 113},
{82, 117},
{82, 118},
{82, 120},
{83, 86},
{83, 90},
{83, 91},
{83, 92},
{83, 94},
{83, 95},
{83, 96},
{83, 98},
{83, 100},
{83, 101},
{83, 102},
{83, 104},
{83, 105},
{83, 106},
{83, 108},
{83, 110},
{83, 111},
{83, 112},
{83, 113},
{83, 114},
{83, 116},
{83, 118},
{83, 119},
{83, 120},
{84, 86},
{84, 87},
{84, 88},
{84, 92},
{84, 94},
{84, 96},
{84, 97},
{84, 99},
{84, 100},
{84, 101},
{84, 103},
{84, 104},
{84, 105},
{84, 107},
{84, 109},
{84, 112},
{84, 113},
{84, 114},
{84, 116},
{84, 117},
{84, 119},
{84, 120},
{85, 96},
{85, 97},
{85, 98},
{85, 100},
{85, 101},
{85, 102},
{85, 103},
{85, 105},
{85, 106},
{85, 111},
{85, 112},
{85, 114},
{85, 116},
{85, 117},
{85, 118},
{85, 119},
{85, 120},
{86, 87},
{86, 91},
{86, 93},
{86, 96},
{86, 97},
{86, 99},
{86, 101},
{86, 102},
{86, 103},
{86, 104},
{86, 106},
{86, 109},
{86, 110},
{86, 111},
{86, 118},
{86, 120},
{87, 88},
{87, 91},
{87, 92},
{87, 94},
{87, 95},
{87, 96},
{87, 98},
{87, 99},
{87, 100},
{87, 104},
{87, 107},
{87, 109},
{87, 111},
{87, 113},
{87, 114},
{87, 118},
{87, 119},
{87, 120},
{88, 89},
{88, 91},
{88, 92},
{88, 95},
{88, 96},
{88, 98},
{88, 100},
{88, 101},
{88, 103},
{88, 105},
{88, 109},
{88, 114},
{88, 117},
{88, 119},
{88, 120},
{89, 90},
{89, 92},
{89, 93},
{89, 96},
{89, 98},
{89, 102},
{89, 103},
{89, 104},
{89, 106},
{89, 108},
{89, 111},
{89, 112},
{89, 113},
{89, 114},
{89, 119},
{90, 91},
{90, 95},
{90, 96},
{90, 97},
{90, 98},
{90, 100},
{90, 101},
{90, 104},
{90, 108},
{90, 110},
{90, 111},
{90, 114},
{90, 115},
{90, 117},
{90, 118},
{90, 119},
{91, 93},
{91, 94},
{91, 95},
{91, 96},
{91, 97},
{91, 98},
{91, 100},
{91, 102},
{91, 103},
{91, 104},
{91, 106},
{91, 108},
{91, 111},
{91, 117},
{92, 93},
{92, 94},
{92, 96},
{92, 97},
{92, 99},
{92, 100},
{92, 102},
{92, 111},
{92, 112},
{92, 114},
{92, 115},
{92, 117},
{92, 118},
{92, 119},
{93, 98},
{93, 102},
{93, 103},
{93, 106},
{93, 108},
{93, 109},
{93, 111},
{93, 112},
{93, 113},
{93, 114},
{93, 115},
{93, 117},
{93, 118},
{93, 119},
{93, 120},
{94, 96},
{94, 100},
{94, 102},
{94, 104},
{94, 107},
{94, 109},
{94, 114},
{94, 115},
{94, 120},
{95, 96},
{95, 97},
{95, 98},
{95, 99},
{95, 100},
{95, 104},
{95, 111},
{95, 115},
{96, 98},
{96, 99},
{96, 100},
{96, 101},
{96, 102},
{96, 103},
{96, 104},
{96, 105},
{96, 106},
{96, 107},
{96, 108},
{96, 113},
{96, 115},
{96, 116},
{96, 119},
{97, 98},
{97, 100},
{97, 101},
{97, 104},
{97, 105},
{97, 108},
{97, 110},
{97, 112},
{97, 113},
{97, 114},
{97, 115},
{97, 116},
{97, 119},
{98, 99},
{98, 100},
{98, 104},
{98, 116},
{98, 118},
{98, 119},
{99, 101},
{99, 104},
{99, 109},
{99, 112},
{99, 113},
{99, 114},
{99, 115},
{99, 118},
{100, 101},
{100, 102},
{100, 105},
{100, 106},
{100, 108},
{100, 114},
{100, 116},
{100, 120},
{101, 102},
{101, 103},
{101, 106},
{101, 109},
{101, 110},
{101, 111},
{101, 112},
{101, 113},
{101, 114},
{101, 118},
{101, 120},
{102, 106},
{102, 107},
{102, 109},
{102, 111},
{102, 112},
{102, 115},
{102, 117},
{102, 120},
{103, 104},
{103, 108},
{103, 109},
{103, 113},
{103, 115},
{103, 116},
{103, 119},
{104, 110},
{104, 115},
{104, 120},
{105, 107},
{105, 108},
{105, 109},
{105, 113},
{105, 115},
{105, 116},
{105, 119},
{106, 108},
{106, 117},
{106, 120},
{107, 108},
{107, 115},
{107, 116},
{107, 120},
{108, 114},
{108, 116},
{108, 118},
{108, 119},
{109, 110},
{109, 114},
{109, 116},
{109, 120},
{110, 112},
{110, 115},
{110, 117},
{110, 118},
{110, 120},
{111, 115},
{111, 116},
{111, 117},
{111, 118},
{112, 114},
{112, 120},
{113, 115},
{113, 116},
{113, 117},
{113, 120},
{114, 115},
{114, 117},
{114, 120},
{115, 119},
{115, 120},
{116, 118},
{117, 119},
{118, 119},
{118, 120},
{119, 120}}
